# Escenario generado automaticamente: normal

param alpha := 0.5;
param fecha_hoy := 45984;
param s := 100;

set I := P1 P2 P3 P4 P5 P6 P7 P8 P9 P10 P11 P12 P13 P14 P15 P16 P17 P18 P19 P20 P21 P22 P23 P24 P25 P26 P27 P28 P29 P30 P31 P32 P33 P34 P35 P36 P37 P38 P39 P40 P41 P42 P43 P44 P45 P46 P47 P48 P49 P50 P51 P52 P53 P54 P55 P56 P57 P58 P59 P60 P61 P62 P63 P64 P65 P66 P67 P68 P69 P70 P71 P72 P73 P74 P75 P76 P77 P78 P79 P80 P81 P82 P83 P84 P85 P86 P87 P88 P89 P90 P91 P92 P93 P94 P95 P96 P97 P98 P99 P100;
set C := C1 C2 C3 C4 C5 C6 C7 C8 C9 C10 C11 C12 C13 C14 C15;
set J := T1 T2 T3 T4 T5 T6 T7 T8 T9 T10;

param dist_c :=
  'C1' 34
  'C2' 76
  'C3' 45
  'C4' 74
  'C5' 8
  'C6' 11
  'C7' 75
  'C8' 44
  'C9' 69
  'C10' 79
  'C11' 54
  'C12' 85
  'C13' 4
  'C14' 28
  'C15' 73
;

param F :=
  'T1' 700
  'T2' 700
  'T3' 550
  'T4' 700
  'T5' 700
  'T6' 550
  'T7' 350
  'T8' 700
  'T9' 550
  'T10' 700
;
param ADRmax :=
  'T1' 5
  'T2' 5
  'T3' 0
  'T4' 5
  'T5' 5
  'T6' 0
  'T7' 0
  'T8' 5
  'T9' 0
  'T10' 5
;
param W :=
  'T1' 3500
  'T2' 3500
  'T3' 2500
  'T4' 3500
  'T5' 3500
  'T6' 2500
  'T7' 1000
  'T8' 3500
  'T9' 2500
  'T10' 3500
;
param V :=
  'T1' 25
  'T2' 25
  'T3' 18
  'T4' 25
  'T5' 25
  'T6' 18
  'T7' 10
  'T8' 25
  'T9' 18
  'T10' 25
;
param Pmax :=
  'T1' 9
  'T2' 9
  'T3' 4
  'T4' 6
  'T5' 5
  'T6' 8
  'T7' 7
  'T8' 6
  'T9' 10
  'T10' 5
;

param pes :=
  'P1' 153
  'P2' 255
  'P3' 246
  'P4' 114
  'P5' 191
  'P6' 137
  'P7' 250
  'P8' 234
  'P9' 274
  'P10' 271
  'P11' 261
  'P12' 229
  'P13' 246
  'P14' 189
  'P15' 135
  'P16' 101
  'P17' 110
  'P18' 244
  'P19' 128
  'P20' 274
  'P21' 137
  'P22' 135
  'P23' 292
  'P24' 274
  'P25' 190
  'P26' 140
  'P27' 271
  'P28' 144
  'P29' 226
  'P30' 214
  'P31' 156
  'P32' 157
  'P33' 102
  'P34' 277
  'P35' 210
  'P36' 163
  'P37' 179
  'P38' 289
  'P39' 103
  'P40' 229
  'P41' 300
  'P42' 120
  'P43' 115
  'P44' 114
  'P45' 283
  'P46' 106
  'P47' 249
  'P48' 227
  'P49' 152
  'P50' 288
  'P51' 266
  'P52' 220
  'P53' 116
  'P54' 103
  'P55' 280
  'P56' 125
  'P57' 102
  'P58' 125
  'P59' 122
  'P60' 138
  'P61' 282
  'P62' 173
  'P63' 261
  'P64' 200
  'P65' 213
  'P66' 260
  'P67' 292
  'P68' 249
  'P69' 188
  'P70' 181
  'P71' 147
  'P72' 110
  'P73' 160
  'P74' 147
  'P75' 190
  'P76' 243
  'P77' 147
  'P78' 115
  'P79' 129
  'P80' 183
  'P81' 113
  'P82' 140
  'P83' 207
  'P84' 192
  'P85' 191
  'P86' 197
  'P87' 233
  'P88' 234
  'P89' 258
  'P90' 135
  'P91' 248
  'P92' 202
  'P93' 258
  'P94' 206
  'P95' 132
  'P96' 171
  'P97' 155
  'P98' 210
  'P99' 167
  'P100' 169
;
param vol :=
  'P1' 2
  'P2' 3
  'P3' 2
  'P4' 1
  'P5' 2
  'P6' 3
  'P7' 1
  'P8' 2
  'P9' 1
  'P10' 1
  'P11' 3
  'P12' 2
  'P13' 3
  'P14' 1
  'P15' 3
  'P16' 3
  'P17' 3
  'P18' 2
  'P19' 2
  'P20' 1
  'P21' 2
  'P22' 3
  'P23' 1
  'P24' 3
  'P25' 2
  'P26' 1
  'P27' 2
  'P28' 1
  'P29' 1
  'P30' 2
  'P31' 3
  'P32' 2
  'P33' 1
  'P34' 2
  'P35' 1
  'P36' 3
  'P37' 1
  'P38' 3
  'P39' 3
  'P40' 3
  'P41' 2
  'P42' 3
  'P43' 2
  'P44' 1
  'P45' 1
  'P46' 1
  'P47' 2
  'P48' 1
  'P49' 3
  'P50' 1
  'P51' 1
  'P52' 1
  'P53' 2
  'P54' 2
  'P55' 3
  'P56' 1
  'P57' 2
  'P58' 2
  'P59' 1
  'P60' 3
  'P61' 1
  'P62' 3
  'P63' 3
  'P64' 2
  'P65' 2
  'P66' 3
  'P67' 3
  'P68' 1
  'P69' 1
  'P70' 2
  'P71' 2
  'P72' 3
  'P73' 3
  'P74' 1
  'P75' 3
  'P76' 3
  'P77' 3
  'P78' 2
  'P79' 3
  'P80' 3
  'P81' 2
  'P82' 3
  'P83' 3
  'P84' 3
  'P85' 2
  'P86' 1
  'P87' 3
  'P88' 2
  'P89' 1
  'P90' 2
  'P91' 3
  'P92' 3
  'P93' 1
  'P94' 1
  'P95' 2
  'P96' 3
  'P97' 2
  'P98' 3
  'P99' 3
  'P100' 3
;
param adr :=
  'P1' 0
  'P2' 0
  'P3' 1
  'P4' 0
  'P5' 0
  'P6' 0
  'P7' 0
  'P8' 0
  'P9' 1
  'P10' 0
  'P11' 0
  'P12' 0
  'P13' 0
  'P14' 0
  'P15' 0
  'P16' 0
  'P17' 0
  'P18' 0
  'P19' 1
  'P20' 0
  'P21' 0
  'P22' 0
  'P23' 0
  'P24' 0
  'P25' 0
  'P26' 0
  'P27' 0
  'P28' 0
  'P29' 0
  'P30' 1
  'P31' 0
  'P32' 0
  'P33' 1
  'P34' 0
  'P35' 0
  'P36' 0
  'P37' 1
  'P38' 0
  'P39' 0
  'P40' 0
  'P41' 0
  'P42' 0
  'P43' 0
  'P44' 0
  'P45' 0
  'P46' 0
  'P47' 0
  'P48' 0
  'P49' 0
  'P50' 0
  'P51' 0
  'P52' 0
  'P53' 0
  'P54' 0
  'P55' 0
  'P56' 0
  'P57' 0
  'P58' 0
  'P59' 1
  'P60' 0
  'P61' 0
  'P62' 0
  'P63' 0
  'P64' 0
  'P65' 0
  'P66' 0
  'P67' 0
  'P68' 0
  'P69' 0
  'P70' 0
  'P71' 0
  'P72' 0
  'P73' 0
  'P74' 0
  'P75' 0
  'P76' 0
  'P77' 0
  'P78' 0
  'P79' 0
  'P80' 0
  'P81' 1
  'P82' 0
  'P83' 0
  'P84' 0
  'P85' 0
  'P86' 0
  'P87' 0
  'P88' 0
  'P89' 0
  'P90' 0
  'P91' 0
  'P92' 0
  'P93' 0
  'P94' 0
  'P95' 1
  'P96' 0
  'P97' 0
  'P98' 0
  'P99' 0
  'P100' 0
;
param t :=
  'P1' 350
  'P2' 350
  'P3' 350
  'P4' 350
  'P5' 350
  'P6' 350
  'P7' 350
  'P8' 350
  'P9' 350
  'P10' 350
  'P11' 350
  'P12' 350
  'P13' 350
  'P14' 350
  'P15' 350
  'P16' 350
  'P17' 350
  'P18' 350
  'P19' 350
  'P20' 350
  'P21' 350
  'P22' 350
  'P23' 350
  'P24' 350
  'P25' 350
  'P26' 350
  'P27' 350
  'P28' 350
  'P29' 350
  'P30' 350
  'P31' 350
  'P32' 350
  'P33' 350
  'P34' 350
  'P35' 350
  'P36' 350
  'P37' 350
  'P38' 350
  'P39' 350
  'P40' 350
  'P41' 350
  'P42' 350
  'P43' 350
  'P44' 350
  'P45' 350
  'P46' 350
  'P47' 350
  'P48' 350
  'P49' 350
  'P50' 350
  'P51' 350
  'P52' 350
  'P53' 350
  'P54' 350
  'P55' 350
  'P56' 350
  'P57' 350
  'P58' 350
  'P59' 350
  'P60' 350
  'P61' 350
  'P62' 350
  'P63' 350
  'P64' 350
  'P65' 350
  'P66' 350
  'P67' 350
  'P68' 350
  'P69' 350
  'P70' 350
  'P71' 350
  'P72' 350
  'P73' 350
  'P74' 350
  'P75' 350
  'P76' 350
  'P77' 350
  'P78' 350
  'P79' 350
  'P80' 350
  'P81' 350
  'P82' 350
  'P83' 350
  'P84' 350
  'P85' 350
  'P86' 350
  'P87' 350
  'P88' 350
  'P89' 350
  'P90' 350
  'P91' 350
  'P92' 350
  'P93' 350
  'P94' 350
  'P95' 350
  'P96' 350
  'P97' 350
  'P98' 350
  'P99' 350
  'P100' 350
;
param fecha :=
  'P1' 45985
  'P2' 45984
  'P3' 45984
  'P4' 45984
  'P5' 45984
  'P6' 45984
  'P7' 45984
  'P8' 45985
  'P9' 45984
  'P10' 45985
  'P11' 45985
  'P12' 45984
  'P13' 45984
  'P14' 45984
  'P15' 45984
  'P16' 45985
  'P17' 45984
  'P18' 45984
  'P19' 45984
  'P20' 45984
  'P21' 45984
  'P22' 45984
  'P23' 45985
  'P24' 45984
  'P25' 45984
  'P26' 45984
  'P27' 45984
  'P28' 45984
  'P29' 45984
  'P30' 45985
  'P31' 45984
  'P32' 45985
  'P33' 45985
  'P34' 45984
  'P35' 45984
  'P36' 45984
  'P37' 45984
  'P38' 45985
  'P39' 45984
  'P40' 45984
  'P41' 45984
  'P42' 45984
  'P43' 45984
  'P44' 45984
  'P45' 45984
  'P46' 45984
  'P47' 45984
  'P48' 45984
  'P49' 45984
  'P50' 45984
  'P51' 45984
  'P52' 45984
  'P53' 45984
  'P54' 45984
  'P55' 45984
  'P56' 45984
  'P57' 45984
  'P58' 45985
  'P59' 45985
  'P60' 45984
  'P61' 45984
  'P62' 45984
  'P63' 45984
  'P64' 45985
  'P65' 45984
  'P66' 45985
  'P67' 45984
  'P68' 45985
  'P69' 45984
  'P70' 45984
  'P71' 45985
  'P72' 45984
  'P73' 45984
  'P74' 45985
  'P75' 45984
  'P76' 45985
  'P77' 45984
  'P78' 45984
  'P79' 45984
  'P80' 45984
  'P81' 45985
  'P82' 45984
  'P83' 45985
  'P84' 45984
  'P85' 45984
  'P86' 45984
  'P87' 45985
  'P88' 45984
  'P89' 45985
  'P90' 45985
  'P91' 45985
  'P92' 45985
  'P93' 45984
  'P94' 45984
  'P95' 45984
  'P96' 45985
  'P97' 45985
  'P98' 45984
  'P99' 45984
  'P100' 45985
;
param cli :=
  'P1' 'C10'
  'P2' 'C8'
  'P3' 'C7'
  'P4' 'C10'
  'P5' 'C2'
  'P6' 'C6'
  'P7' 'C13'
  'P8' 'C15'
  'P9' 'C7'
  'P10' 'C8'
  'P11' 'C2'
  'P12' 'C15'
  'P13' 'C13'
  'P14' 'C4'
  'P15' 'C7'
  'P16' 'C6'
  'P17' 'C13'
  'P18' 'C13'
  'P19' 'C2'
  'P20' 'C14'
  'P21' 'C2'
  'P22' 'C1'
  'P23' 'C5'
  'P24' 'C2'
  'P25' 'C10'
  'P26' 'C8'
  'P27' 'C12'
  'P28' 'C4'
  'P29' 'C2'
  'P30' 'C5'
  'P31' 'C3'
  'P32' 'C3'
  'P33' 'C11'
  'P34' 'C11'
  'P35' 'C10'
  'P36' 'C4'
  'P37' 'C7'
  'P38' 'C5'
  'P39' 'C3'
  'P40' 'C13'
  'P41' 'C12'
  'P42' 'C15'
  'P43' 'C12'
  'P44' 'C10'
  'P45' 'C6'
  'P46' 'C4'
  'P47' 'C13'
  'P48' 'C11'
  'P49' 'C5'
  'P50' 'C2'
  'P51' 'C5'
  'P52' 'C12'
  'P53' 'C2'
  'P54' 'C8'
  'P55' 'C14'
  'P56' 'C9'
  'P57' 'C14'
  'P58' 'C10'
  'P59' 'C4'
  'P60' 'C3'
  'P61' 'C13'
  'P62' 'C11'
  'P63' 'C14'
  'P64' 'C7'
  'P65' 'C13'
  'P66' 'C5'
  'P67' 'C3'
  'P68' 'C2'
  'P69' 'C11'
  'P70' 'C2'
  'P71' 'C1'
  'P72' 'C3'
  'P73' 'C7'
  'P74' 'C10'
  'P75' 'C3'
  'P76' 'C10'
  'P77' 'C12'
  'P78' 'C11'
  'P79' 'C5'
  'P80' 'C12'
  'P81' 'C9'
  'P82' 'C9'
  'P83' 'C3'
  'P84' 'C1'
  'P85' 'C10'
  'P86' 'C11'
  'P87' 'C8'
  'P88' 'C11'
  'P89' 'C11'
  'P90' 'C11'
  'P91' 'C12'
  'P92' 'C5'
  'P93' 'C14'
  'P94' 'C9'
  'P95' 'C2'
  'P96' 'C15'
  'P97' 'C10'
  'P98' 'C4'
  'P99' 'C14'
  'P100' 'C10'
;
